50 8
661 405
617 470
548 685
631 535
446 535
348 710
617 188
71 54
121 73
531 615
597 486
771 577
834 615
583 419
653 475
610 652
198 142
656 696
649 357
435 374
210 578
266 803
495 494
628 855
123 588
535 586
607 881
664 428
527 470
534 882
365 736
649 834
413 552
206 612
258 706
192 749
242 923
491 348
227 662
222 176
706 382
522 877
116 538
804 600
454 421
477 595
490 558
662 673
226 547
805 852
